c 1 2 ?
p cnf 4 4
1,2
2,3
3,4
1,4
c 2 2 ?
p cnf 3 3
1,2
2,3
1,3
c 3 3 ?
p cnf 4 5
1,2
2,3
3,4
1,4
1,3
c 4 2 ?
p cnf 4 5
1,2
2,3
3,4
1,4
1,3
c 5 3 ?
p cnf 5 8
1, 2
2, 3
3, 4
4, 1
1, 5
2, 5
3, 5
4, 5
c 6 3 ?
p cnf 8 12
1, 2
2, 3
3, 4
4, 5
5, 6
6, 7
7, 8
8, 1
1, 7
2, 8
3, 5
4, 6
c 7 4 ?
p cnf 9 9
1,2
1,3
1,6
2,4
3,8
8,9
9,5
5,6
6,7